Solver command line: ['C:\\gurobi1102\\win64\\bin\\gurobi.bat']

Set parameter Username
Academic license - for non-commercial use only - expires 2025-06-25
Read LP format model from file C:\Users\danin\AppData\Local\Temp\tmp6ohhmjmw.pyomo.lp
Reading time = 0.11 seconds
x1: 16975 rows, 16900 columns, 109473 nonzeros
Set parameter Cuts to value 0
Set parameter Presolve to value 0
Set parameter TimeLimit to value 10
Set parameter Threads to value 6
Gurobi Optimizer version 11.0.2 build v11.0.2rc0 (win64 - Windows 11.0 (22631.2))

CPU model: AMD Ryzen 5 4600H with Radeon Graphics, instruction set [SSE2|AVX|AVX2]
Thread count: 6 physical cores, 12 logical processors, using up to 6 threads

Optimize a model with 16975 rows, 16900 columns and 109473 nonzeros
Model fingerprint: 0x0c95ac0d
Variable types: 625 continuous, 16275 integer (16275 binary)
Coefficient statistics:
  Matrix range     [1e+00, 3e+02]
  Objective range  [7e+00, 7e+01]
  Bounds range     [1e+00, 1e+00]
  RHS range        [1e+00, 2e+02]
Variable types: 625 continuous, 16275 integer (16275 binary)
Found heuristic solution: objective 1246.1601802
Deterministic concurrent LP optimizer: primal and dual simplex
Showing primal log only...

Concurrent spin time: 0.03s

Solved with dual simplex

Root relaxation: objective 2.925360e+02, 821 iterations, 0.14 seconds (0.12 work units)

    Nodes    |    Current Node    |     Objective Bounds      |     Work
 Expl Unexpl |  Obj  Depth IntInf | Incumbent    BestBd   Gap | It/Node Time

     0     0  292.53603    0   50 1246.16018  292.53603  76.5%     -    0s
H    0     0                     733.3382169  292.53603  60.1%     -    0s
H    0     0                     649.0196594  292.53603  54.9%     -    0s
     0     0  292.53603    0   50  649.01966  292.53603  54.9%     -    0s
     0     2  292.65133    0   50  649.01966  292.65133  54.9%     -    0s
H   31    38                     621.9520323  292.65133  52.9%  86.8    2s
H   36    38                     596.5627167  292.65133  50.9%  79.9    2s
H   67    67                     561.7870517  292.65133  47.9%  59.1    3s
H   96   101                     558.9337408  292.65133  47.6%  45.8    4s
H   97   101                     523.2984141  292.65133  44.1%  45.3    4s
H  102   107                     488.0149821  292.65133  40.0%  43.4    4s
H  104   107                     483.6443687  292.65133  39.5%  44.2    4s
H  105   107                     482.3959758  292.65133  39.3%  43.9    4s
   108   132  292.65133   20   56  482.39598  292.65133  39.3%  42.7    5s
H  138   144                     472.5421085  292.65133  38.1%  36.0    6s
H  148   155                     466.1417470  292.65133  37.2%  35.6    7s
   327   315  347.73312   43   66  466.14175  292.65133  37.2%  23.9   10s

Explored 329 nodes (9226 simplex iterations) in 10.03 seconds (9.97 work units)
Thread count was 6 (of 12 available processors)

Solution count 10: 466.142 472.542 482.396 ... 621.952

Time limit reached
Best objective 4.661417470098e+02, best bound 2.926513346746e+02, gap 37.2184%

